(declare-fun list_member (Int Int) Bool)
(declare-fun list_head (Int Int) Bool)

(declare-const s1 Int)
(declare-const s2 Int)
(declare-const nu_top Int)
(declare-const nu_tail Int)
(declare-const nu_concat Int)
(declare-const nu Int)

(assert
(let ((a!1 (forall ((u_0 Int) (u_1 Int) (u_2 Int))
             (and (not (list_member s1 u_2))
                  (not (list_head s1 u_1))
                  (not (list_member s1 u_0))
                  (not (list_member s1 u_1)))))
      (a!2 (forall ((u_0 Int) (u_1 Int) (u_2 Int))
             (let ((a!1 (=> (list_head s1 u_2)
                            (and (= u_2 u_1)
                                 (=> (list_member s1 u_0) (= u_2 u_0)))))
                   (a!2 (=> (and (not (list_head s1 u_2)) (list_head s1 u_0))
                            (= u_1 u_0)))
                   (a!3 (=> (not (= u_0 nu_top))
                            (and (not (list_head s1 u_0))
                                 (=> (list_head s1 u_2) (= u_2 nu_top))))))
             (let ((a!4 (and (=> (and (= u_0 nu_top) (list_member s1 u_2))
                                 (= u_2 u_0))
                             a!3)))
             (let ((a!5 (=> (and (not (list_head s1 u_1))
                                 (not (list_member s1 u_1)))
                            a!4)))
               (and (list_head s1 nu_top)
                    (=> (list_head s1 u_1)
                        (and (= u_1 nu_top) (list_member s1 u_1) a!1 a!2))
                    a!5))))))
      (a!3 (forall ((u_0 Int) (u_1 Int) (u_2 Int))
             (let ((a!1 (=> (list_head nu_concat u_1)
                            (and (not (list_member s2 u_2))
                                 (not (list_member nu_tail u_1)))))
                   (a!2 (=> (and (not (list_head nu_concat u_1))
                                 (list_head s2 u_0)
                                 (list_member nu_tail u_2))
                            (and (= u_2 u_1) (= u_2 u_0))))
                   (a!4 (=> (and (not (list_member nu_tail u_1))
                                 (list_head nu_tail u_0))
                            (list_member s2 u_1)))
                   (a!7 (=> (and (not (list_member s2 u_2))
                                 (list_head nu_concat u_0))
                            (and (list_head nu_tail u_0)
                                 (=> (list_member nu_concat u_2)
                                     (list_member nu_tail u_2)))))
                   (a!9 (=> (and (list_member nu_tail u_2)
                                 (list_member s2 u_2)
                                 (list_head nu_concat u_2))
                            (and (list_head nu_tail u_2)
                                 (=> (list_member nu_concat u_0)
                                     (list_member s2 u_0)))))
                   (a!10 (and (list_member s2 u_0)
                              (=> (not (= u_2 u_0)) (not (list_member s2 u_2)))))
                   (a!11 (=> (and (= u_1 u_0) (not (= u_2 u_1)))
                             (and (not (list_member s2 u_2))
                                  (not (list_head nu_concat u_2))))))
             (let ((a!3 (and (list_member s2 u_1)
                             (=> (not (list_head nu_tail u_1))
                                 (and (list_member nu_concat u_1) a!1 a!2))))
                   (a!5 (and (=> (and (list_member nu_tail u_1)
                                      (list_member s2 u_1))
                                 (and (list_head nu_tail u_2) (= u_1 u_0)))
                             a!4))
                   (a!12 (=> (not (list_member nu_concat u_1))
                             (and (not (list_head nu_concat u_1))
                                  (not (list_member s2 u_1))
                                  (not (list_head nu_tail u_2))
                                  a!11))))
             (let ((a!6 (=> (list_member s2 u_2)
                            (and (list_member nu_concat u_2)
                                 (=> (list_member nu_tail u_2) a!5))))
                   (a!13 (=> (not (list_member nu_concat u_0))
                             (and (not (list_head nu_concat u_0))
                                  (not (list_member s2 u_0))
                                  a!12))))
             (let ((a!8 (and (=> (and (list_head s2 u_2)
                                      (list_head nu_concat u_2))
                                 (list_head nu_tail u_2))
                             (=> (not (list_head s2 u_2)) (and a!6 a!7))))
                   (a!14 (and (=> (and (list_member nu_concat u_0)
                                       (list_member nu_concat u_1))
                                  a!10)
                              a!13)))
             (let ((a!15 (and a!9 (=> (not (list_member nu_tail u_2)) a!14))))
             (let ((a!16 (and (=> (and (list_member nu_tail u_0)
                                       (list_member s2 u_0))
                                  a!8)
                              (=> (not (list_member nu_tail u_0)) a!15))))
               (and (=> (list_head s2 u_1) a!3)
                    (=> (not (list_head s2 u_1)) a!16))))))))))
      (a!4 (forall ((u_0 Int) (u_1 Int) (u_2 Int))
             (and (not (list_head nu u_1))
                  (=> (not (list_head nu nu_top)) (list_head nu_concat u_2)))))
      (a!6 (forall ((u Int))
             (and (= (list_member nu u)
                     (or (list_member s1 u) (list_member s2 u)))
                  (=> (list_head nu u) (or (list_head s1 u) (list_head s2 u)))))))
(let ((a!5 (or (and a!1 (= s2 nu))
               (and (forall ((u_0 Int) (u_1 Int) (u_2 Int))
                      (let ((a!1 (=> (and (= u_2 u_0) (list_head s1 u_2))
                                     (and (list_member s1 u_2)
                                          (=> (list_head s1 u_1) (= u_2 u_1)))))
                            (a!2 (=> (and (list_head s1 u_1) (list_head s1 u_2))
                                     (and (not (list_head s1 u_0)) (= u_2 u_1))))
                            (a!3 (=> (and (not (list_member s1 u_1))
                                          (list_head s1 u_2))
                                     (not (list_head s1 u_0))))
                            (a!5 (=> (and (not (list_member s1 u_2))
                                          (list_head s1 u_1))
                                     (and (list_member s1 u_1)
                                          (=> (list_head s1 u_0) (= u_1 u_0))))))
                      (let ((a!4 (=> (and (not (list_head s1 u_1))
                                          (list_member s1 u_0)
                                          (not (= u_1 u_0)))
                                     (and (=> (list_member s1 u_1)
                                              (list_head s1 u_0))
                                          a!3))))
                      (let ((a!6 (=> (not (= u_2 u_0))
                                     (and (=> (list_member s1 u_2)
                                              (and a!2 a!4))
                                          a!5))))
                        (and a!1 a!6)))))
                    a!2
                    (forall ((u_0 Int) (u_1 Int) (u_2 Int))
                      (let ((a!1 (=> (list_head s1 u_2)
                                     (and (= u_2 u_0)
                                          (not (list_head nu_tail u_2)))))
                            (a!2 (=> (and (= u_2 u_1)
                                          (not (list_head nu_tail u_2)))
                                     (list_head nu_tail u_0)))
                            (a!3 (=> (and (= u_1 u_0)
                                          (not (list_head nu_tail u_2)))
                                     (list_head nu_tail u_1)))
                            (a!4 (=> (not (= u_1 u_0))
                                     (and (= u_2 u_0)
                                          (not (list_head nu_tail u_2))
                                          (not (list_head nu_tail u_1)))))
                            (a!8 (=> (and (not (list_member nu_tail u_2))
                                          (not (list_head s1 u_0)))
                                     (list_member nu_tail u_0)))
                            (a!10 (=> (and (not (list_head s1 u_1))
                                           (not (list_member nu_tail u_1)))
                                      (and (not (list_member s1 u_1))
                                           (not (list_head nu_tail u_1))))))
                      (let ((a!5 (and a!2 (=> (not (= u_2 u_1)) (and a!3 a!4))))
                            (a!11 (and (=> (and (list_head s1 u_1)
                                                (list_member nu_tail u_1))
                                           (list_head nu_tail u_1))
                                       a!10)))
                      (let ((a!6 (=> (and (not (list_head s1 u_0))
                                          (list_member nu_tail u_1)
                                          (not (list_head s1 u_2))
                                          (not (list_head s1 u_1)))
                                     a!5))
                            (a!12 (=> (and (not (= u_2 u_1)) (not (= u_1 u_0)))
                                      a!11)))
                      (let ((a!7 (and (=> (and (list_head s1 u_0)
                                               (list_member nu_tail u_0))
                                          (and (= u_2 u_1)
                                               (list_member s1 u_2)
                                               a!1))
                                      a!6))
                            (a!13 (=> (and (not (list_head s1 u_2))
                                           (not (list_member nu_tail u_2)))
                                      (and (not (list_member s1 u_2))
                                           (not (list_head nu_tail u_2))
                                           a!12))))
                      (let ((a!9 (=> (list_member s1 u_0)
                                     (and (=> (list_member nu_tail u_2) a!7)
                                          a!8)))
                            (a!14 (=> (not (list_member s1 u_0))
                                      (and (not (list_head nu_tail u_0))
                                           (not (list_member nu_tail u_0))
                                           a!13))))
                        (and a!9 a!14)))))))
                    a!3
                    a!4))))
  (not (=> a!5 a!6))))
)

(check-sat)
